NAME : optical-integer.pruned_local_8.tour
TYPE : TOUR
DIMENSION : 174
TOUR_SECTION
1
112
113
114
121
127
129
167
168
2
39
45
46
51
88
96
104
105
109
130
132
133
134
139
144
148
149
150
151
152
153
154
155
158
160
3
107
108
140
145
146
4
58
59
62
63
66
67
70
71
74
75
78
79
82
83
90
95
102
117
120
123
124
125
126
161
162
163
164
5
37
38
40
43
49
50
53
55
97
138
169
170
171
172
6
48
100
115
131
137
173
174
7
56
57
60
61
64
65
68
69
72
73
76
77
80
81
84
85
87
103
111
116
119
135
159
165
166
8
11
12
15
16
19
20
23
24
27
28
31
32
35
36
47
52
99
101
106
110
118
122
128
141
142
143
147
9
10
13
14
17
18
21
22
25
26
29
30
33
34
41
42
44
54
86
89
91
92
93
94
98
136
156
157
-1
EOF
